(set-logic HORN)
(declare-datatypes ((Nat_281 0)) (((Z_904 ) (S_248 (unS_318 Nat_281)))))
(declare-fun diseqNat_281 (Nat_281 Nat_281) Bool)
(declare-fun unS_319 (Nat_281 Nat_281) Bool)
(declare-fun isZ_232 (Nat_281) Bool)
(declare-fun isS_232 (Nat_281) Bool)
(assert (forall ((x_22979 Nat_281))
	(unS_319 x_22979 (S_248 x_22979))))
(assert (isZ_232 Z_904))
(assert (forall ((x_22981 Nat_281))
	(isS_232 (S_248 x_22981))))
(assert (forall ((x_22982 Nat_281))
	(diseqNat_281 Z_904 (S_248 x_22982))))
(assert (forall ((x_22983 Nat_281))
	(diseqNat_281 (S_248 x_22983) Z_904)))
(assert (forall ((x_22984 Nat_281) (x_22985 Nat_281))
	(=> (diseqNat_281 x_22984 x_22985)
	    (diseqNat_281 (S_248 x_22984) (S_248 x_22985)))))
(declare-fun add_169 (Nat_281 Nat_281 Nat_281) Bool)
(declare-fun minus_163 (Nat_281 Nat_281 Nat_281) Bool)
(declare-fun le_159 (Nat_281 Nat_281) Bool)
(declare-fun ge_159 (Nat_281 Nat_281) Bool)
(declare-fun lt_165 (Nat_281 Nat_281) Bool)
(declare-fun gt_160 (Nat_281 Nat_281) Bool)
(declare-fun mult_159 (Nat_281 Nat_281 Nat_281) Bool)
(declare-fun div_159 (Nat_281 Nat_281 Nat_281) Bool)
(declare-fun mod_159 (Nat_281 Nat_281 Nat_281) Bool)
(assert (forall ((y_915 Nat_281))
	(add_169 y_915 Z_904 y_915)))
(assert (forall ((x_22955 Nat_281) (y_915 Nat_281) (r_189 Nat_281))
	(=> (add_169 r_189 x_22955 y_915)
	    (add_169 (S_248 r_189) (S_248 x_22955) y_915))))
(assert (forall ((y_915 Nat_281))
	(minus_163 Z_904 Z_904 y_915)))
(assert (forall ((x_22955 Nat_281) (y_915 Nat_281) (r_189 Nat_281))
	(=> (minus_163 r_189 x_22955 y_915)
	    (minus_163 (S_248 r_189) (S_248 x_22955) y_915))))
(assert (forall ((y_915 Nat_281))
	(le_159 Z_904 y_915)))
(assert (forall ((x_22955 Nat_281) (y_915 Nat_281))
	(=> (le_159 x_22955 y_915)
	    (le_159 (S_248 x_22955) (S_248 y_915)))))
(assert (forall ((y_915 Nat_281))
	(ge_159 y_915 Z_904)))
(assert (forall ((x_22955 Nat_281) (y_915 Nat_281))
	(=> (ge_159 x_22955 y_915)
	    (ge_159 (S_248 x_22955) (S_248 y_915)))))
(assert (forall ((y_915 Nat_281))
	(lt_165 Z_904 (S_248 y_915))))
(assert (forall ((x_22955 Nat_281) (y_915 Nat_281))
	(=> (lt_165 x_22955 y_915)
	    (lt_165 (S_248 x_22955) (S_248 y_915)))))
(assert (forall ((y_915 Nat_281))
	(gt_160 (S_248 y_915) Z_904)))
(assert (forall ((x_22955 Nat_281) (y_915 Nat_281))
	(=> (gt_160 x_22955 y_915)
	    (gt_160 (S_248 x_22955) (S_248 y_915)))))
(assert (forall ((y_915 Nat_281))
	(mult_159 Z_904 Z_904 y_915)))
(assert (forall ((x_22955 Nat_281) (y_915 Nat_281) (r_189 Nat_281) (z_905 Nat_281))
	(=>	(and (mult_159 r_189 x_22955 y_915)
			(add_169 z_905 r_189 y_915))
		(mult_159 z_905 (S_248 x_22955) y_915))))
(assert (forall ((x_22955 Nat_281) (y_915 Nat_281))
	(=> (lt_165 x_22955 y_915)
	    (div_159 Z_904 x_22955 y_915))))
(assert (forall ((x_22955 Nat_281) (y_915 Nat_281) (r_189 Nat_281) (z_905 Nat_281))
	(=>	(and (ge_159 x_22955 y_915)
			(minus_163 z_905 x_22955 y_915)
			(div_159 r_189 z_905 y_915))
		(div_159 (S_248 r_189) x_22955 y_915))))
(assert (forall ((x_22955 Nat_281) (y_915 Nat_281))
	(=> (lt_165 x_22955 y_915)
	    (mod_159 x_22955 x_22955 y_915))))
(assert (forall ((x_22955 Nat_281) (y_915 Nat_281) (r_189 Nat_281) (z_905 Nat_281))
	(=>	(and (ge_159 x_22955 y_915)
			(minus_163 z_905 x_22955 y_915)
			(mod_159 r_189 z_905 y_915))
		(mod_159 r_189 x_22955 y_915))))
(declare-datatypes ((list_114 0)) (((nil_126 ) (cons_114 (head_228 Nat_281) (tail_228 list_114)))))
(declare-fun diseqlist_114 (list_114 list_114) Bool)
(declare-fun head_229 (Nat_281 list_114) Bool)
(declare-fun tail_229 (list_114 list_114) Bool)
(declare-fun isnil_126 (list_114) Bool)
(declare-fun iscons_114 (list_114) Bool)
(assert (forall ((x_22957 Nat_281) (x_22958 list_114))
	(head_229 x_22957 (cons_114 x_22957 x_22958))))
(assert (forall ((x_22957 Nat_281) (x_22958 list_114))
	(tail_229 x_22958 (cons_114 x_22957 x_22958))))
(assert (isnil_126 nil_126))
(assert (forall ((x_22960 Nat_281) (x_22961 list_114))
	(iscons_114 (cons_114 x_22960 x_22961))))
(assert (forall ((x_22962 Nat_281) (x_22963 list_114))
	(diseqlist_114 nil_126 (cons_114 x_22962 x_22963))))
(assert (forall ((x_22964 Nat_281) (x_22965 list_114))
	(diseqlist_114 (cons_114 x_22964 x_22965) nil_126)))
(assert (forall ((x_22966 Nat_281) (x_22967 list_114) (x_22968 Nat_281) (x_22969 list_114))
	(=> (diseqNat_281 x_22966 x_22968)
	    (diseqlist_114 (cons_114 x_22966 x_22967) (cons_114 x_22968 x_22969)))))
(assert (forall ((x_22966 Nat_281) (x_22967 list_114) (x_22968 Nat_281) (x_22969 list_114))
	(=> (diseqlist_114 x_22967 x_22969)
	    (diseqlist_114 (cons_114 x_22966 x_22967) (cons_114 x_22968 x_22969)))))
(declare-datatypes ((Nat_280 0)) (((zero_49 ) (succ_48 (p_136 Nat_280)))))
(declare-fun diseqNat_280 (Nat_280 Nat_280) Bool)
(declare-fun p_137 (Nat_280 Nat_280) Bool)
(declare-fun iszero_48 (Nat_280) Bool)
(declare-fun issucc_48 (Nat_280) Bool)
(assert (forall ((x_22971 Nat_280))
	(p_137 x_22971 (succ_48 x_22971))))
(assert (iszero_48 zero_49))
(assert (forall ((x_22973 Nat_280))
	(issucc_48 (succ_48 x_22973))))
(assert (forall ((x_22974 Nat_280))
	(diseqNat_280 zero_49 (succ_48 x_22974))))
(assert (forall ((x_22975 Nat_280))
	(diseqNat_280 (succ_48 x_22975) zero_49)))
(assert (forall ((x_22976 Nat_280) (x_22977 Nat_280))
	(=> (diseqNat_280 x_22976 x_22977)
	    (diseqNat_280 (succ_48 x_22976) (succ_48 x_22977)))))
(declare-fun x_22939 (list_114 list_114 list_114) Bool)
(assert (forall ((x_22943 list_114) (z_901 Nat_281) (xs_285 list_114) (y_913 list_114))
	(=> (x_22939 x_22943 xs_285 y_913)
	    (x_22939 (cons_114 z_901 x_22943) (cons_114 z_901 xs_285) y_913))))
(assert (forall ((x_22944 list_114))
	(x_22939 x_22944 nil_126 x_22944)))
(declare-fun rotate_1 (list_114 Nat_280 list_114) Bool)
(assert (forall ((x_22945 list_114) (x_22946 list_114) (z_903 Nat_281) (xs_286 list_114) (z_902 Nat_280))
	(=>	(and (x_22939 x_22946 xs_286 (cons_114 z_903 nil_126))
			(rotate_1 x_22945 z_902 x_22946))
		(rotate_1 x_22945 (succ_48 z_902) (cons_114 z_903 xs_286)))))
(assert (forall ((z_902 Nat_280))
	(rotate_1 nil_126 (succ_48 z_902) nil_126)))
(assert (forall ((x_22949 list_114))
	(rotate_1 x_22949 zero_49 x_22949)))
(assert (forall ((x_22950 list_114) (x_22951 list_114) (x_22952 list_114) (x_22953 list_114) (x_22954 list_114) (n_54 Nat_280) (xs_287 list_114))
	(=>	(and true
			(diseqlist_114 x_22951 x_22954)
			(x_22939 x_22950 xs_287 xs_287)
			(rotate_1 x_22951 n_54 x_22950)
			(rotate_1 x_22952 n_54 xs_287)
			(rotate_1 x_22953 n_54 xs_287)
			(x_22939 x_22954 x_22952 x_22953))
		false)))
(check-sat)
